NAME : rcdp2504.473460.tour
COMMENT : Cost = 0_473460
COMMENT : Found by LKH [Keld Helsgaun] Thu Sep 14 16:08:53 2017
TYPE : TOUR
DIMENSION : 29
TOUR_SECTION
1
20
9
8
29
22
11
18
12
2
10
15
27
14
26
21
17
4
3
28
19
23
25
13
16
7
5
6
24
-1
EOF
